c nIsolatedPIs 32
c maxPI 96
p cnf 338 727
c gate 97 39 87 0
39 -97 0
87 -97 0
-39 -87 97 0
c gate 98 37 85 0
37 -98 0
85 -98 0
-37 -85 98 0
c gate 99 38 86 0
38 -99 0
86 -99 0
-38 -86 99 0
c gate 100 -98 -99 0
-98 -100 0
-99 -100 0
98 99 100 0
c gate 101 -37 -85 0
-37 -101 0
-85 -101 0
37 85 101 0
c gate 102 36 84 0
36 -102 0
84 -102 0
-36 -84 102 0
c gate 103 -35 -83 0
-35 -103 0
-83 -103 0
35 83 103 0
c gate 104 -36 -84 0
-36 -104 0
-84 -104 0
36 84 104 0
c gate 105 -103 -104 0
-103 -105 0
-104 -105 0
103 104 105 0
c gate 106 -102 -105 0
-102 -106 0
-105 -106 0
102 105 106 0
c gate 107 35 83 0
35 -107 0
83 -107 0
-35 -83 107 0
c gate 108 -102 -107 0
-102 -108 0
-107 -108 0
102 107 108 0
c gate 109 34 82 0
34 -109 0
82 -109 0
-34 -82 109 0
c gate 110 108 -109 0
108 -110 0
-109 -110 0
-108 109 110 0
c gate 111 -34 -82 0
-34 -111 0
-82 -111 0
34 82 111 0
c gate 112 33 81 0
33 -112 0
81 -112 0
-33 -81 112 0
c gate 113 -111 112 0
-111 -113 0
112 -113 0
111 -112 113 0
c gate 114 110 -113 0
110 -114 0
-113 -114 0
-110 113 114 0
c gate 115 -106 -114 0
-106 -115 0
-114 -115 0
106 114 115 0
c gate 116 23 71 0
23 -116 0
71 -116 0
-23 -71 116 0
c gate 117 -23 -71 0
-23 -117 0
-71 -117 0
23 71 117 0
c gate 118 -116 -117 0
-116 -118 0
-117 -118 0
116 117 118 0
c gate 119 24 72 0
24 -119 0
72 -119 0
-24 -72 119 0
c gate 120 -24 -72 0
-24 -120 0
-72 -120 0
24 72 120 0
c gate 121 -119 -120 0
-119 -121 0
-120 -121 0
119 120 121 0
c gate 122 118 121 0
118 -122 0
121 -122 0
-118 -121 122 0
c gate 123 22 70 0
22 -123 0
70 -123 0
-22 -70 123 0
c gate 124 21 69 0
21 -124 0
69 -124 0
-21 -69 124 0
c gate 125 -123 -124 0
-123 -125 0
-124 -125 0
123 124 125 0
c gate 126 -22 -70 0
-22 -126 0
-70 -126 0
22 70 126 0
c gate 127 -21 -69 0
-21 -127 0
-69 -127 0
21 69 127 0
c gate 128 -126 -127 0
-126 -128 0
-127 -128 0
126 127 128 0
c gate 129 125 128 0
125 -129 0
128 -129 0
-125 -128 129 0
c gate 130 122 129 0
122 -130 0
129 -130 0
-122 -129 130 0
c gate 131 2 50 0
2 -131 0
50 -131 0
-2 -50 131 0
c gate 132 1 49 0
1 -132 0
49 -132 0
-1 -49 132 0
c gate 133 -131 -132 0
-131 -133 0
-132 -133 0
131 132 133 0
c gate 134 -3 -51 0
-3 -134 0
-51 -134 0
3 51 134 0
c gate 135 -2 -50 0
-2 -135 0
-50 -135 0
2 50 135 0
c gate 136 -134 -135 0
-134 -136 0
-135 -136 0
134 135 136 0
c gate 137 -133 136 0
-133 -137 0
136 -137 0
133 -136 137 0
c gate 138 4 52 0
4 -138 0
52 -138 0
-4 -52 138 0
c gate 139 3 51 0
3 -139 0
51 -139 0
-3 -51 139 0
c gate 140 -138 -139 0
-138 -140 0
-139 -140 0
138 139 140 0
c gate 141 -137 140 0
-137 -141 0
140 -141 0
137 -140 141 0
c gate 142 -4 -52 0
-4 -142 0
-52 -142 0
4 52 142 0
c gate 143 -5 -53 0
-5 -143 0
-53 -143 0
5 53 143 0
c gate 144 -142 -143 0
-142 -144 0
-143 -144 0
142 143 144 0
c gate 145 -141 144 0
-141 -145 0
144 -145 0
141 -144 145 0
c gate 146 6 54 0
6 -146 0
54 -146 0
-6 -54 146 0
c gate 147 5 53 0
5 -147 0
53 -147 0
-5 -53 147 0
c gate 148 -146 -147 0
-146 -148 0
-147 -148 0
146 147 148 0
c gate 149 -145 148 0
-145 -149 0
148 -149 0
145 -148 149 0
c gate 150 -7 -55 0
-7 -150 0
-55 -150 0
7 55 150 0
c gate 151 -6 -54 0
-6 -151 0
-54 -151 0
6 54 151 0
c gate 152 -150 -151 0
-150 -152 0
-151 -152 0
150 151 152 0
c gate 153 -149 152 0
-149 -153 0
152 -153 0
149 -152 153 0
c gate 154 7 55 0
7 -154 0
55 -154 0
-7 -55 154 0
c gate 155 8 56 0
8 -155 0
56 -155 0
-8 -56 155 0
c gate 156 -154 -155 0
-154 -156 0
-155 -156 0
154 155 156 0
c gate 157 -153 156 0
-153 -157 0
156 -157 0
153 -156 157 0
c gate 158 -12 -60 0
-12 -158 0
-60 -158 0
12 60 158 0
c gate 159 11 -158 0
11 -159 0
-158 -159 0
-11 158 159 0
c gate 160 59 -158 0
59 -160 0
-158 -160 0
-59 158 160 0
c gate 161 -159 -160 0
-159 -161 0
-160 -161 0
159 160 161 0
c gate 162 -16 -64 0
-16 -162 0
-64 -162 0
16 64 162 0
c gate 163 -8 -56 0
-8 -163 0
-56 -163 0
8 56 163 0
c gate 164 -9 -57 0
-9 -164 0
-57 -164 0
9 57 164 0
c gate 165 -163 -164 0
-163 -165 0
-164 -165 0
163 164 165 0
c gate 166 -162 165 0
-162 -166 0
165 -166 0
162 -165 166 0
c gate 167 9 57 0
9 -167 0
57 -167 0
-9 -57 167 0
c gate 168 10 58 0
10 -168 0
58 -168 0
-10 -58 168 0
c gate 169 -167 -168 0
-167 -169 0
-168 -169 0
167 168 169 0
c gate 170 -13 -61 0
-13 -170 0
-61 -170 0
13 61 170 0
c gate 171 -10 -58 0
-10 -171 0
-58 -171 0
10 58 171 0
c gate 172 -170 -171 0
-170 -172 0
-171 -172 0
170 171 172 0
c gate 173 169 172 0
169 -173 0
172 -173 0
-169 -172 173 0
c gate 174 166 173 0
166 -174 0
173 -174 0
-166 -173 174 0
c gate 175 -161 174 0
-161 -175 0
174 -175 0
161 -174 175 0
c gate 176 12 60 0
12 -176 0
60 -176 0
-12 -60 176 0
c gate 177 59 159 0
59 -177 0
159 -177 0
-59 -159 177 0
c gate 178 -176 -177 0
-176 -178 0
-177 -178 0
176 177 178 0
c gate 179 16 64 0
16 -179 0
64 -179 0
-16 -64 179 0
c gate 180 15 63 0
15 -180 0
63 -180 0
-15 -63 180 0
c gate 181 -179 -180 0
-179 -181 0
-180 -181 0
179 180 181 0
c gate 182 -15 -63 0
-15 -182 0
-63 -182 0
15 63 182 0
c gate 183 -14 -62 0
-14 -183 0
-62 -183 0
14 62 183 0
c gate 184 -182 -183 0
-182 -184 0
-183 -184 0
182 183 184 0
c gate 185 14 62 0
14 -185 0
62 -185 0
-14 -62 185 0
c gate 186 13 61 0
13 -186 0
61 -186 0
-13 -61 186 0
c gate 187 -185 -186 0
-185 -187 0
-186 -187 0
185 186 187 0
c gate 188 184 187 0
184 -188 0
187 -188 0
-184 -187 188 0
c gate 189 181 188 0
181 -189 0
188 -189 0
-181 -188 189 0
c gate 190 178 189 0
178 -190 0
189 -190 0
-178 -189 190 0
c gate 191 175 190 0
175 -191 0
190 -191 0
-175 -190 191 0
c gate 192 -157 191 0
-157 -192 0
191 -192 0
157 -191 192 0
c gate 193 -169 -171 0
-169 -193 0
-171 -193 0
169 171 193 0
c gate 194 -161 193 0
-161 -194 0
193 -194 0
161 -193 194 0
c gate 195 178 -194 0
178 -195 0
-194 -195 0
-178 194 195 0
c gate 196 -170 -195 0
-170 -196 0
-195 -196 0
170 195 196 0
c gate 197 187 -196 0
187 -197 0
-196 -197 0
-187 196 197 0
c gate 198 184 -197 0
184 -198 0
-197 -198 0
-184 197 198 0
c gate 199 181 -198 0
181 -199 0
-198 -199 0
-181 198 199 0
c gate 200 -162 -199 0
-162 -200 0
-199 -200 0
162 199 200 0
c gate 201 -192 -200 0
-192 -201 0
-200 -201 0
192 200 201 0
c gate 202 -19 -67 0
-19 -202 0
-67 -202 0
19 67 202 0
c gate 203 -18 -66 0
-18 -203 0
-66 -203 0
18 66 203 0
c gate 204 -202 -203 0
-202 -204 0
-203 -204 0
202 203 204 0
c gate 205 18 66 0
18 -205 0
66 -205 0
-18 -66 205 0
c gate 206 17 65 0
17 -206 0
65 -206 0
-17 -65 206 0
c gate 207 -205 -206 0
-205 -207 0
-206 -207 0
205 206 207 0
c gate 208 204 -207 0
204 -208 0
-207 -208 0
-204 207 208 0
c gate 209 20 68 0
20 -209 0
68 -209 0
-20 -68 209 0
c gate 210 19 67 0
19 -210 0
67 -210 0
-19 -67 210 0
c gate 211 -209 -210 0
-209 -211 0
-210 -211 0
209 210 211 0
c gate 212 -208 211 0
-208 -212 0
211 -212 0
208 -211 212 0
c gate 213 -20 -68 0
-20 -213 0
-68 -213 0
20 68 213 0
c gate 214 -17 -65 0
-17 -214 0
-65 -214 0
17 65 214 0
c gate 215 -213 -214 0
-213 -215 0
-214 -215 0
213 214 215 0
c gate 216 204 215 0
204 -216 0
215 -216 0
-204 -215 216 0
c gate 217 212 216 0
212 -217 0
216 -217 0
-212 -216 217 0
c gate 218 -201 217 0
-201 -218 0
217 -218 0
201 -217 218 0
c gate 219 130 218 0
130 -219 0
218 -219 0
-130 -218 219 0
c gate 220 -212 -213 0
-212 -220 0
-213 -220 0
212 213 220 0
c gate 221 130 220 0
130 -221 0
220 -221 0
-130 -220 221 0
c gate 222 -125 -126 0
-125 -222 0
-126 -222 0
125 126 222 0
c gate 223 122 222 0
122 -223 0
222 -223 0
-122 -222 223 0
c gate 224 116 -120 0
116 -224 0
-120 -224 0
-116 120 224 0
c gate 225 -119 -224 0
-119 -225 0
-224 -225 0
119 224 225 0
c gate 226 -223 225 0
-223 -226 0
225 -226 0
223 -225 226 0
c gate 227 -221 226 0
-221 -227 0
226 -227 0
221 -226 227 0
c gate 228 -219 227 0
-219 -228 0
227 -228 0
219 -227 228 0
c gate 229 -26 -74 0
-26 -229 0
-74 -229 0
26 74 229 0
c gate 230 -27 -75 0
-27 -230 0
-75 -230 0
27 75 230 0
c gate 231 -229 -230 0
-229 -231 0
-230 -231 0
229 230 231 0
c gate 232 26 74 0
26 -232 0
74 -232 0
-26 -74 232 0
c gate 233 25 73 0
25 -233 0
73 -233 0
-25 -73 233 0
c gate 234 -232 -233 0
-232 -234 0
-233 -234 0
232 233 234 0
c gate 235 231 -234 0
231 -235 0
-234 -235 0
-231 234 235 0
c gate 236 27 75 0
27 -236 0
75 -236 0
-27 -75 236 0
c gate 237 28 76 0
28 -237 0
76 -237 0
-28 -76 237 0
c gate 238 -236 -237 0
-236 -238 0
-237 -238 0
236 237 238 0
c gate 239 -235 238 0
-235 -239 0
238 -239 0
235 -238 239 0
c gate 240 -32 -80 0
-32 -240 0
-80 -240 0
32 80 240 0
c gate 241 -31 -79 0
-31 -241 0
-79 -241 0
31 79 241 0
c gate 242 -240 -241 0
-240 -242 0
-241 -242 0
240 241 242 0
c gate 243 31 79 0
31 -243 0
79 -243 0
-31 -79 243 0
c gate 244 32 80 0
32 -244 0
80 -244 0
-32 -80 244 0
c gate 245 -243 -244 0
-243 -245 0
-244 -245 0
243 244 245 0
c gate 246 242 245 0
242 -246 0
245 -246 0
-242 -245 246 0
c gate 247 -232 -246 0
-232 -247 0
-246 -247 0
232 246 247 0
c gate 248 -30 -78 0
-30 -248 0
-78 -248 0
30 78 248 0
c gate 249 -25 -73 0
-25 -249 0
-73 -249 0
25 73 249 0
c gate 250 -248 -249 0
-248 -250 0
-249 -250 0
248 249 250 0
c gate 251 231 250 0
231 -251 0
250 -251 0
-231 -250 251 0
c gate 252 -28 -76 0
-28 -252 0
-76 -252 0
28 76 252 0
c gate 253 -29 -77 0
-29 -253 0
-77 -253 0
29 77 253 0
c gate 254 -252 -253 0
-252 -254 0
-253 -254 0
252 253 254 0
c gate 255 30 78 0
30 -255 0
78 -255 0
-30 -78 255 0
c gate 256 29 77 0
29 -256 0
77 -256 0
-29 -77 256 0
c gate 257 -255 -256 0
-255 -257 0
-256 -257 0
255 256 257 0
c gate 258 254 257 0
254 -258 0
257 -258 0
-254 -257 258 0
c gate 259 251 258 0
251 -259 0
258 -259 0
-251 -258 259 0
c gate 260 -247 259 0
-247 -260 0
259 -260 0
247 -259 260 0
c gate 261 239 260 0
239 -261 0
260 -261 0
-239 -260 261 0
c gate 262 -228 261 0
-228 -262 0
261 -262 0
228 -261 262 0
c gate 263 -239 254 0
-239 -263 0
254 -263 0
239 -254 263 0
c gate 264 257 -263 0
257 -264 0
-263 -264 0
-257 263 264 0
c gate 265 -248 -264 0
-248 -265 0
-264 -265 0
248 264 265 0
c gate 266 -243 -265 0
-243 -266 0
-265 -266 0
243 265 266 0
c gate 267 242 -266 0
242 -267 0
-266 -267 0
-242 266 267 0
c gate 268 -244 -267 0
-244 -268 0
-267 -268 0
244 267 268 0
c gate 269 -262 268 0
-262 -269 0
268 -269 0
262 -268 269 0
c gate 270 -33 -81 0
-33 -270 0
-81 -270 0
33 81 270 0
c gate 271 -111 -270 0
-111 -271 0
-270 -271 0
111 270 271 0
c gate 272 -109 -112 0
-109 -272 0
-112 -272 0
109 112 272 0
c gate 273 271 272 0
271 -273 0
272 -273 0
-271 -272 273 0
c gate 274 105 108 0
105 -274 0
108 -274 0
-105 -108 274 0
c gate 275 273 274 0
273 -275 0
274 -275 0
-273 -274 275 0
c gate 276 -269 275 0
-269 -276 0
275 -276 0
269 -275 276 0
c gate 277 -115 -276 0
-115 -277 0
-276 -277 0
115 276 277 0
c gate 278 -101 -277 0
-101 -278 0
-277 -278 0
101 277 278 0
c gate 279 100 -278 0
100 -279 0
-278 -279 0
-100 278 279 0
c gate 280 -97 -279 0
-97 -280 0
-279 -280 0
97 279 280 0
c gate 281 40 88 0
40 -281 0
88 -281 0
-40 -88 281 0
c gate 282 -40 -88 0
-40 -282 0
-88 -282 0
40 88 282 0
c gate 283 -39 -87 0
-39 -283 0
-87 -283 0
39 87 283 0
c gate 284 -38 -86 0
-38 -284 0
-86 -284 0
38 86 284 0
c gate 285 -283 -284 0
-283 -285 0
-284 -285 0
283 284 285 0
c gate 286 -282 285 0
-282 -286 0
285 -286 0
282 -285 286 0
c gate 287 -281 286 0
-281 -287 0
286 -287 0
281 -286 287 0
c gate 288 280 287 0
280 -288 0
287 -288 0
-280 -287 288 0
c gate 289 -98 -101 0
-98 -289 0
-101 -289 0
98 101 289 0
c gate 290 -106 289 0
-106 -290 0
289 -290 0
106 -289 290 0
c gate 291 -112 268 0
-112 -291 0
268 -291 0
112 -268 291 0
c gate 292 271 -291 0
271 -292 0
-291 -292 0
-271 291 292 0
c gate 293 110 -292 0
110 -293 0
-292 -293 0
-110 292 293 0
c gate 294 290 -293 0
290 -294 0
-293 -294 0
-290 293 294 0
c gate 295 100 -294 0
100 -295 0
-294 -295 0
-100 294 295 0
c gate 296 285 -295 0
285 -296 0
-295 -296 0
-285 295 296 0
c gate 297 -280 296 0
-280 -297 0
296 -297 0
280 -296 297 0
c gate 298 -288 -297 0
-288 -298 0
-297 -298 0
288 297 298 0
c gate 299 287 -295 0
287 -299 0
-295 -299 0
-287 295 299 0
c gate 300 -97 -299 0
-97 -300 0
-299 -300 0
97 299 300 0
c gate 301 -298 300 0
-298 -301 0
300 -301 0
298 -300 301 0
c gate 302 45 93 0
45 -302 0
93 -302 0
-45 -93 302 0
c gate 303 -42 -90 0
-42 -303 0
-90 -303 0
42 90 303 0
c gate 304 42 90 0
42 -304 0
90 -304 0
-42 -90 304 0
c gate 305 -303 -304 0
-303 -305 0
-304 -305 0
303 304 305 0
c gate 306 43 91 0
43 -306 0
91 -306 0
-43 -91 306 0
c gate 307 44 92 0
44 -307 0
92 -307 0
-44 -92 307 0
c gate 308 -306 -307 0
-306 -308 0
-307 -308 0
306 307 308 0
c gate 309 -43 -91 0
-43 -309 0
-91 -309 0
43 91 309 0
c gate 310 -44 -92 0
-44 -310 0
-92 -310 0
44 92 310 0
c gate 311 -309 -310 0
-309 -311 0
-310 -311 0
309 310 311 0
c gate 312 308 311 0
308 -312 0
311 -312 0
-308 -311 312 0
c gate 313 305 312 0
305 -313 0
312 -313 0
-305 -312 313 0
c gate 314 41 89 0
41 -314 0
89 -314 0
-41 -89 314 0
c gate 315 -41 -89 0
-41 -315 0
-89 -315 0
41 89 315 0
c gate 316 -314 -315 0
-314 -316 0
-315 -316 0
314 315 316 0
c gate 317 -97 -281 0
-97 -317 0
-281 -317 0
97 281 317 0
c gate 318 -282 -317 0
-282 -318 0
-317 -318 0
282 317 318 0
c gate 319 -288 -318 0
-288 -319 0
-318 -319 0
288 318 319 0
c gate 320 316 -319 0
316 -320 0
-319 -320 0
-316 319 320 0
c gate 321 313 320 0
313 -321 0
320 -321 0
-313 -320 321 0
c gate 322 -302 321 0
-302 -322 0
321 -322 0
302 -321 322 0
c gate 323 46 94 0
46 -323 0
94 -323 0
-46 -94 323 0
c gate 324 -302 -323 0
-302 -324 0
-323 -324 0
302 323 324 0
c gate 325 -45 -93 0
-45 -325 0
-93 -325 0
45 93 325 0
c gate 326 -46 -94 0
-46 -326 0
-94 -326 0
46 94 326 0
c gate 327 -325 -326 0
-325 -327 0
-326 -327 0
325 326 327 0
c gate 328 324 327 0
324 -328 0
327 -328 0
-324 -327 328 0
c gate 329 47 -95 0
47 -329 0
-95 -329 0
-47 95 329 0
c gate 330 -47 95 0
-47 -330 0
95 -330 0
47 -95 330 0
c gate 331 -329 -330 0
-329 -331 0
-330 -331 0
329 330 331 0
c gate 332 48 -96 0
48 -332 0
-96 -332 0
-48 96 332 0
c gate 333 -48 96 0
-48 -333 0
96 -333 0
48 -96 333 0
c gate 334 -332 -333 0
-332 -334 0
-333 -334 0
332 333 334 0
c gate 335 -331 -334 0
-331 -335 0
-334 -335 0
331 334 335 0
c gate 336 328 335 0
328 -336 0
335 -336 0
-328 -335 336 0
c gate 337 322 336 0
322 -337 0
336 -337 0
-322 -336 337 0
c gate 338 -301 337 0
-301 -338 0
337 -338 0
301 -337 338 0
c PO
338 0
